# Cost: 189

# Tail Head Net
41 21 1
61 41 1
81 61 1
101 81 1
121 101 1
141 121 1
161 141 1
181 161 1
201 181 1
202 201 1
203 202 1
204 203 1
224 204 1
225 224 1
226 225 1
246 226 1
266 246 1
286 266 1
306 286 1
307 306 1
308 307 1
309 308 1
310 309 1
311 310 1
312 311 1
313 312 1
314 313 1
315 314 1
316 315 1
317 316 1
317 337 1
318 317 1
319 318 1
320 319 1
337 357 1
357 377 1
377 397 1
24 4 2
44 24 2
44 45 2
45 46 2
46 47 2
47 48 2
48 49 2
49 50 2
50 51 2
51 52 2
52 53 2
53 54 2
54 55 2
55 56 2
56 57 2
57 58 2
58 59 2
59 60 2
243 643 2
261 262 2
262 263 2
263 243 2
281 261 2
443 444 2
444 44 2
463 443 2
483 463 2
503 483 2
523 503 2
543 523 2
563 543 2
583 563 2
603 583 2
623 603 2
643 623 2
9 8 3
9 29 3
10 9 3
11 10 3
12 11 3
13 12 3
14 13 3
29 429 3
349 369 3
369 389 3
383 382 3
384 383 3
385 384 3
386 385 3
387 386 3
388 387 3
389 388 3
389 390 3
390 391 3
391 392 3
392 393 3
393 394 3
394 395 3
395 396 3
429 449 3
449 469 3
469 489 3
489 509 3
509 529 3
529 549 3
549 569 3
569 589 3
589 609 3
609 629 3
629 649 3
649 669 3
669 689 3
689 709 3
709 729 3
729 749 3
749 349 3
341 321 4
240 640 5
640 660 5
660 680 5
680 700 5
700 720 5
720 740 5
740 760 5
760 780 5
780 800 5
800 400 5
3 23 6
23 43 6
43 63 6
63 83 6
83 103 6
103 123 6
123 143 6
143 144 6
144 145 6
145 146 6
146 147 6
147 148 6
148 149 6
149 150 6
150 151 6
151 152 6
152 153 6
153 154 6
154 155 6
155 156 6
156 157 6
157 158 6
158 159 6
159 160 6
6 7 7
7 407 7
407 408 7
408 409 7
409 410 7
410 411 7
411 412 7
412 413 7
413 414 7
414 415 7
415 416 7
416 417 7
417 418 7
418 18 7
2 22 8
22 42 8
42 62 8
62 82 8
82 102 8
102 122 8
122 142 8
142 162 8
162 163 8
163 164 8
164 165 8
165 166 8
166 167 8
167 168 8
168 188 8
188 189 8
189 190 8
190 191 8
191 192 8
192 193 8
193 194 8
194 195 8
195 196 8
196 197 8
197 198 8
198 199 8
199 200 8
